5 
300 
-0.5 0 0 0
0.5 0 0 -28
-7 -7 35 -29
-7 -5 35 -13
-7 -3 -35 -61
-7 -1 -35 -69
-7 1 35 -24
-7 3 35 -22
-7 5 -35 -88
-7 7 35 -26
-5 -7 35 -22
-5 -5 25 -16
-5 -3 -25 -129
-5 -1 25 -24
-5 1 25 -11
-5 3 -25 -130
-5 5 25 -21
-5 7 35 -29
-3 -7 35 -13
-3 -5 25 -21
-3 -3 -15 -94
-3 -1 15 -14
-3 1 15 -19
-3 3 15 -26
-3 5 -25 -89
-3 7 -35 -65
-1 -7 35 -22
-1 -5 -25 -121
-1 -3 -15 -135
-1 -1 -5 -88
-1 1 5 -27
-1 3 -15 -78
-1 5 25 -27
-1 7 -35 -72
1 -7 -35 -100
1 -5 25 -12
1 -3 15 -16
1 -1 5 -27
1 1 -5 -132
1 3 15 -11
1 5 25 -22
1 7 -35 -119
3 -7 -35 -136
3 -5 -25 -135
3 -3 15 -12
3 -1 -15 -124
3 1 15 -19
3 3 -15 -66
3 5 25 -25
3 7 35 -13
5 -7 35 -21
5 -5 25 -25
5 -3 -25 -115
5 -1 -25 -99
5 1 -25 -131
5 3 25 -14
5 5 25 -28
5 7 -35 -122
7 -7 35 -23
7 -5 35 -21
7 -3 35 -14
7 -1 -35 -138
7 1 35 -24
7 3 35 -19
7 5 -35 -124
7 7 -35 -133
